
%nproc=
%mem=4000MB
#p 

this line for comments

0 1
Zn     1.328026051   0.761099901   2.257929777
Zn    -0.000013000   1.538530418  -0.276649895
Zn     1.332399496   0.769276709  -2.749998961
Zn    -0.006575202   3.079437767   2.299023675
Zn    -1.332412497   3.846313546  -0.276649895
Zn     0.000000000   3.077059837  -2.749998961
Zn    -1.338828507   5.387575102   2.279738849
Zn    -2.664811993   6.154097674  -0.276649895
Zn    -1.332399496   5.384843965  -2.749998961
Zn     3.997813805   0.768403106   2.276275144
Zn     2.664785993   1.538530418  -0.276649895
Zn     3.997198489   0.769276709  -2.749998961
Zn     2.661375923   3.079539077   2.367184504
Zn     1.332386496   3.846313546  -0.276649895
Zn     2.664798993   3.077059837  -2.749998961
Zn     1.327990318   5.394445585   2.254776875
Zn    -0.000013000   6.154097674  -0.276649895
Zn     1.332399496   5.384843965  -2.749998961
Zn     6.654020376   0.769379309   2.279498209
Zn     5.329584986   1.538530418  -0.276649895
Zn     6.661997482   0.769276709  -2.749998961
Zn     5.326437676   3.076479493   2.273309260
Zn     3.997185490   3.846313546  -0.276649895
Zn     5.329597986   3.077059837  -2.749998961
Zn     3.996310366   5.388840967   2.274565763
Zn     2.664785993   6.154097674  -0.276649895
Zn     3.997198489   5.384843965  -2.749998961
Zn     1.519933327   3.132221749   5.039074130
Tv     7.994382774   0.000000000   0.000000000
Tv    -3.997191387   6.923335342   0.000000000
Tv     0.000000000   0.000000000  44.946602424

